[2026-03-01T17:25:37] Logging to: /run/media/saveas/Secondary-Storage/Masters/CS234/CS234_Reinforcement_Learning/Final Project/CS234_Final_Project/results/trajectory_optimization/nlp/TRACK3_300m/base/run_trajopt_demo_output.log
======================================================================
IPOPT TRAJECTORY OPTIMIZATION DEMO (SINGLE STAGE)
======================================================================

1. Loading track: /run/media/saveas/Secondary-Storage/Masters/CS234/CS234_Reinforcement_Learning/Final Project/CS234_Final_Project/maps/TRACK3_300m.mat
   Track length: 300.0 m

2. Creating vehicle model...
   Vehicle: SingleTrackModel(VW_Golf_GTI, weight_transfer=enabled)

3. Loaded obstacles from map: 0

4. Setup:
   N = 120
   ds = 2.50 m
   Obstacle subsamples/segment = 7
   Obstacle enforce midpoints = False
   Obstacle use slack = False
   Track buffer = 0.00 m
   lambda_u = 0.005
   vehicle_radius_m = 0.00
   eps_s = 0.100, eps_kappa = 0.050
   Solver path = Python/CasADi (IPOPT)

======================================================================
SINGLE STAGE: COMBINED OBJECTIVE (ACCEPTANCE-GATED)
======================================================================
Acceptance gates: success=True, max_slack<=0.000e+00, min_clearance>=-0.0010 m
Acceptance policy: practical epsilon mode (allows tiny negative dense clearance).
Initializer: obstacle_aware_init=True, sigma=8.00 m, margin=0.30 m

Attempt 1/4: baseline
  N=120, ds=2.500 m, subsamples=7, obstacle_clearance_m=0.000
Exception of type: DYNAMIC_LIBRARY_FAILURE in file "Common/IpLibraryLoader.cpp" at line 72:
 Exception message: libhsl.so: cannot open shared object file: No such file or directory

EXIT: Library loading failure.
      solver  :   t_proc      (avg)   t_wall      (avg)    n_eval
       total  | 334.00us (334.00us) 332.93us (332.93us)         1
Solver failed with ipopt.linear_solver=ma57: Error in Opti::solve [OptiNode] at .../casadi/core/optistack.cpp:217:
.../casadi/core/optistack_internal.cpp:1338: Assertion "return_success(accept_limit)" failed:
Solver failed. You may use opti.debug.value to investigate the latest values of variables. return_status is 'Invalid_Option'
Retrying with IPOPT default linear solver.

******************************************************************************
This program contains Ipopt, a library for large-scale nonlinear optimization.
 Ipopt is released as open source code under the Eclipse Public License (EPL).
         For more information visit https://github.com/coin-or/Ipopt
******************************************************************************

This is Ipopt version 3.14.11, running with linear solver MUMPS 5.4.1.

Number of nonzeros in equality constraint Jacobian...:    13219
Number of nonzeros in inequality constraint Jacobian.:     1452
Number of nonzeros in Lagrangian Hessian.............:     5080

Total number of variables............................:     1210
                     variables with only lower bounds:        0
                variables with lower and upper bounds:        0
                     variables with only upper bounds:        0
Total number of equality constraints.................:      970
Total number of inequality constraints...............:     1089
        inequality constraints with only lower bounds:      726
   inequality constraints with lower and upper bounds:        0
        inequality constraints with only upper bounds:      363

iter    objective    inf_pr   inf_du lg(mu)  ||d||  lg(rg) alpha_du alpha_pr  ls
   0  3.0000000e+01 6.41e-01 1.05e+00  -1.0 0.00e+00    -  0.00e+00 0.00e+00   0
   1  2.9963045e+01 5.62e-01 1.12e+02  -1.0 8.60e+00   2.0 6.74e-01 1.25e-01h  4
   2  2.9957920e+01 5.27e-01 1.08e+03  -1.0 7.48e+00   3.3 8.42e-01 6.25e-02h  5
   3  2.9957917e+01 5.27e-01 1.10e+03  -1.0 7.93e+00   3.8 5.27e-01 4.46e-04h 11
   4  2.9957760e+01 5.11e-01 4.35e+03  -1.0 7.00e+00   4.2 1.00e+00 3.12e-02h  6
   5  2.9958797e+01 4.95e-01 1.28e+04  -1.0 6.84e+00   4.6 1.00e+00 3.12e-02h  6
   6  2.9962920e+01 4.64e-01 5.64e+04  -1.0 6.68e+00   5.0 1.00e+00 6.25e-02h  5
   7  2.9970901e+01 4.35e-01 1.64e+05  -1.0 6.27e+00   5.5 1.00e+00 6.25e-02h  5
   8  2.9973978e+01 4.31e-01 1.70e+05  -1.0 7.83e+00   5.0 1.00e+00 8.74e-03h  7
   9  3.0001575e+01 3.78e-01 3.31e+05  -1.0 5.80e+00   5.4 1.00e+00 1.25e-01h  4
iter    objective    inf_pr   inf_du lg(mu)  ||d||  lg(rg) alpha_du alpha_pr  ls
  10  3.0013691e+01 3.70e-01 3.34e+05  -1.0 6.03e+00   4.9 1.00e+00 2.17e-02h  6
  11  3.0353683e+01 6.76e+00 5.92e+06  -1.0 4.70e+00   5.4 1.00e+00 1.00e+00w  1
  12  3.0363308e+01 1.10e+01 1.95e+07  -1.0 8.54e-01   5.8 2.87e-01 1.00e+00w  1
  13  3.0353652e+01 6.92e+00 1.14e+08  -1.0 4.69e+00   6.2 6.54e-01 2.16e-01w  1
  14  3.0055993e+01 4.72e-01 4.24e+05  -1.0 5.90e-01   6.6 1.00e+00 1.25e-01h  3
  15  3.0087997e+01 5.22e-01 1.08e+06  -1.0 3.96e+00   6.2 1.00e+00 1.25e-01h  4
  16  3.0390313e+01 1.79e+00 4.93e+06  -1.0 3.56e+00   5.7 1.00e+00 7.83e-01H  1
  17  3.0447876e+01 2.99e+00 2.31e+07  -1.0 1.21e+00   6.1 3.93e-02 5.00e-01h  2
  18  3.0544018e+01 3.59e+00 3.52e+07  -1.0 7.18e-01   5.6 1.00e+00 1.00e+00h  1
  19  3.0574873e+01 9.50e-01 9.86e+06  -1.0 8.05e-01   5.2 1.00e+00 1.00e+00h  1
iter    objective    inf_pr   inf_du lg(mu)  ||d||  lg(rg) alpha_du alpha_pr  ls
  20  3.0590039e+01 8.47e-02 8.71e+05  -1.0 2.67e-01   4.7 1.00e+00 1.00e+00h  1
  21  3.0589976e+01 9.82e-03 5.25e+03  -1.0 9.37e-03   4.2 1.00e+00 1.00e+00h  1
  22  3.0589949e+01 1.87e-04 1.41e+02  -1.0 8.90e-04   3.7 1.00e+00 1.00e+00h  1
  23  3.0589934e+01 9.67e-08 9.94e-02  -1.0 5.68e-05   3.2 1.00e+00 1.00e+00h  1
  24  3.0589910e+01 9.18e-09 1.42e-02  -2.5 2.43e-05   2.8 1.00e+00 1.00e+00h  1
  25  3.0589839e+01 7.73e-08 1.38e-02  -3.8 7.11e-05   2.3 1.00e+00 1.00e+00h  1
  26  3.0589625e+01 6.95e-07 1.38e-02  -3.8 2.13e-04   1.8 1.00e+00 1.00e+00h  1
  27  3.0588985e+01 6.22e-06 1.38e-02  -3.8 6.40e-04   1.3 1.00e+00 1.00e+00h  1
  28  3.0587065e+01 5.52e-05 1.38e-02  -3.8 1.92e-03   0.9 1.00e+00 1.00e+00h  1
  29  3.0581312e+01 4.72e-04 1.38e-02  -3.8 5.75e-03   0.4 1.00e+00 1.00e+00h  1
iter    objective    inf_pr   inf_du lg(mu)  ||d||  lg(rg) alpha_du alpha_pr  ls
  30  3.0564122e+01 3.55e-03 1.38e-02  -3.8 1.72e-02  -0.1 1.00e+00 1.00e+00h  1
  31  3.0513073e+01 1.63e-02 1.41e-02  -3.8 5.28e-02  -0.6 1.00e+00 1.00e+00h  1
  32  3.0362756e+01 5.30e-02 1.51e-02  -3.8 1.69e-01  -1.1 1.00e+00 1.00e+00h  1
  33  2.9924602e+01 1.45e+00 3.18e-02  -3.8 4.87e-01  -1.5 1.00e+00 1.00e+00h  1
  34  2.8946548e+01 3.01e+00 3.69e-01  -3.8 1.18e+00  -2.0 1.00e+00 8.30e-01h  1
  35  2.8010819e+01 2.42e+00 2.30e-01  -3.8 2.85e+00  -2.5 1.03e-01 3.30e-01h  1
  36  2.7725572e+01 1.94e+00 1.25e-01  -3.8 1.25e+00  -2.1 1.00e+00 2.84e-01h  1
  37  2.7021248e+01 1.44e+01 9.46e-02  -3.8 2.57e+01  -2.5 1.79e-01 2.53e-01h  1
  38  2.6818404e+01 1.39e+01 9.10e-02  -3.8 6.00e+00  -3.0 1.77e-02 3.55e-02h  1
  39  2.6754266e+01 1.36e+01 8.87e-02  -3.8 7.39e+00  -2.6 8.58e-02 2.58e-02h  1
iter    objective    inf_pr   inf_du lg(mu)  ||d||  lg(rg) alpha_du alpha_pr  ls
  40  2.6392897e+01 1.28e+01 8.38e-02  -3.8 7.45e+00  -3.1 1.51e-01 6.04e-02h  1
  41  2.6028067e+01 1.09e+01 1.31e-01  -3.8 6.07e+00  -2.6 3.95e-01 1.45e-01h  1
  42  2.3239507e+01 6.86e+00 3.65e-02  -3.8 7.34e+00  -3.1 7.32e-01 4.80e-01h  1
  43  2.3176309e+01 9.02e+00 5.18e-02  -3.8 3.19e+01  -2.7 3.60e-02 3.54e-02h  1
  44  2.3181163e+01 8.87e+00 1.55e-01  -3.8 4.09e+00  -1.4 1.18e-01 1.33e-02h  1
  45  2.3215325e+01 6.76e+00 2.88e-01  -3.8 3.16e+00  -0.9 1.61e-01 7.43e-02h  1
  46  2.3269455e+01 6.00e+00 3.14e-01  -3.8 2.42e+00  -1.4 9.03e-02 5.45e-02H  1
  47  2.3432085e+01 1.03e+01 1.40e+01  -3.8 2.07e+00  -1.0 6.59e-03 4.17e-01h  1
  48  2.3442630e+01 8.72e+00 2.13e+01  -3.8 3.60e+00   0.3 5.17e-04 5.85e-02h  1
  49  2.3444901e+01 8.59e+00 2.09e+01  -3.8 3.39e+00   0.8 1.01e-01 1.09e-02h  1
iter    objective    inf_pr   inf_du lg(mu)  ||d||  lg(rg) alpha_du alpha_pr  ls
  50  2.3457190e+01 7.74e+00 2.03e+01  -3.8 1.37e+00   1.2 6.73e-02 5.83e-02h  1
  51  2.3540570e+01 7.07e+00 5.07e+01  -3.8 1.55e+00   0.7 8.96e-01 3.84e-01h  2
  52  2.3581231e+01 9.44e+00 7.43e+01  -3.8 1.00e+00   0.2 3.17e-01 2.50e-01h  3
  53  2.3718836e+01 4.60e+00 1.00e+02  -3.8 7.77e-01   0.7 4.48e-01 1.00e+00h  1
  54  2.3729384e+01 5.49e+00 2.85e+02  -3.8 7.68e-01   1.1 1.00e+00 5.00e-01h  2
  55  2.3741320e+01 3.18e+00 1.65e+03  -3.8 9.94e-01   1.5 1.01e-01 1.00e+00h  1
  56  2.3741472e+01 3.09e+00 1.60e+03  -3.8 1.25e+00   2.9 1.00e+00 2.94e-02h  1
  57  2.3743437e+01 2.30e+00 1.06e+03  -3.8 1.30e+00   3.3 2.78e-02 3.56e-01h  1
  58  2.3745617e+01 1.79e+00 1.93e+03  -3.8 8.68e-01   3.7 1.00e+00 2.97e-01h  1
  59  2.3752215e+01 1.14e+00 6.38e+03  -3.8 6.58e-01   3.2 1.00e+00 1.00e+00h  1
iter    objective    inf_pr   inf_du lg(mu)  ||d||  lg(rg) alpha_du alpha_pr  ls
  60  2.3754241e+01 6.19e-01 2.10e+03  -3.8 4.37e-01   3.7 1.00e+00 5.03e-01h  1
  61  2.3756730e+01 5.81e-01 1.07e+04  -3.8 2.56e-01   4.1 1.00e+00 1.00e+00h  1
  62  2.3757363e+01 9.88e-02 7.02e+03  -3.8 2.17e-02   4.5 1.00e+00 1.00e+00h  1
  63  2.3757384e+01 5.38e-03 7.02e+01  -3.8 6.59e-03   4.0 9.97e-01 1.00e+00h  1
  64  2.3757435e+01 1.52e-05 5.42e+00  -3.8 8.29e-04   3.5 1.00e+00 1.00e+00f  1
  65  2.3757431e+01 8.18e-10 1.66e-02  -3.8 1.40e-05   3.1 1.00e+00 1.00e+00h  1
  66  2.3757422e+01 2.88e-08 4.27e-02  -3.8 1.08e-04   2.6 1.00e+00 1.00e+00h  1
  67  2.3757387e+01 1.02e-07 2.22e-02  -3.8 1.70e-04   2.1 1.00e+00 1.00e+00h  1
  68  2.3757274e+01 6.78e-07 1.79e-02  -3.8 4.09e-04   1.6 1.00e+00 1.00e+00h  1
  69  2.3756907e+01 4.43e-06 1.41e-02  -3.8 9.66e-04   1.2 1.00e+00 1.00e+00h  1
iter    objective    inf_pr   inf_du lg(mu)  ||d||  lg(rg) alpha_du alpha_pr  ls
  70  2.3755759e+01 3.61e-05 1.16e-02  -3.8 2.40e-03   0.7 1.00e+00 1.00e+00h  1
  71  2.3752255e+01 2.59e-04 1.02e-02  -3.8 6.32e-03   0.2 1.00e+00 1.00e+00h  1
  72  2.3741780e+01 1.44e-03 9.61e-03  -3.8 1.78e-02  -0.3 1.00e+00 1.00e+00h  1
  73  2.3711116e+01 6.95e-03 9.29e-03  -3.8 5.16e-02  -0.7 1.00e+00 1.00e+00h  1
  74  2.3624151e+01 2.04e-02 1.26e-02  -3.8 1.45e-01  -1.2 1.00e+00 1.00e+00h  1
  75  2.3387195e+01 1.31e-01 1.52e-02  -3.8 3.76e-01  -1.7 1.00e+00 1.00e+00h  1
  76  2.3239778e+01 1.38e-01 1.20e-02  -3.8 1.01e+00  -2.2 1.00e+00 2.42e-01h  1
  77  2.3025606e+01 1.34e-01 1.36e-02  -3.8 4.41e-01  -1.7 1.00e+00 1.00e+00h  1
  78  2.2732632e+01 1.79e-01 1.12e-02  -3.8 1.18e+00  -2.2 1.00e+00 5.09e-01h  1
  79  2.2531621e+01 1.74e-01 7.33e-03  -3.8 4.64e-01  -1.8 1.00e+00 1.00e+00h  1
iter    objective    inf_pr   inf_du lg(mu)  ||d||  lg(rg) alpha_du alpha_pr  ls
  80  2.2460407e+01 6.13e-02 7.69e-03  -3.8 1.82e-01  -1.4 1.00e+00 1.00e+00h  1
  81  2.2246472e+01 1.65e+00 1.97e-02  -3.8 6.80e-01  -1.9 1.00e+00 1.00e+00h  1
  82  2.2167407e+01 6.93e-01 8.16e-02  -3.8 1.86e-01  -1.4 3.83e-01 1.00e+00h  1
  83  2.2157481e+01 6.93e-01 8.15e-02  -3.8 2.52e+01    -  5.99e-02 1.11e-03h  1
  84  2.1631126e+01 1.49e+00 7.63e-02  -3.8 2.15e+01    -  2.85e-01 6.81e-02f  1
  85  2.0767247e+01 1.30e+00 6.68e-02  -3.8 1.12e+01    -  3.09e-01 1.32e-01h  1
  86  1.9712317e+01 2.37e+00 3.30e-01  -3.8 1.21e+01    -  1.55e-01 2.14e-01h  1
  87  1.9560877e+01 2.27e+00 3.14e-01  -3.8 1.73e+01    -  1.76e-01 4.70e-02h  1
  88  1.9131702e+01 2.08e+00 2.63e-01  -3.8 1.70e+01    -  1.92e-01 1.61e-01h  1
  89  1.9191237e+01 1.66e+00 1.87e-01  -3.8 1.45e+00  -1.9 5.59e-01 2.66e-01h  1
iter    objective    inf_pr   inf_du lg(mu)  ||d||  lg(rg) alpha_du alpha_pr  ls
  90  1.9263805e+01 1.07e+00 1.97e-01  -3.8 2.05e+00  -2.4 7.06e-01 4.26e-01h  1
  91  1.9273811e+01 1.39e+00 1.42e-01  -3.8 3.11e+00  -2.9 1.00e+00 5.27e-01h  1
  92  1.9280776e+01 8.04e-01 5.01e-01  -3.8 1.08e+00  -0.6 1.13e-01 9.04e-02h  1
  93  1.9292207e+01 7.11e-01 4.22e-01  -3.8 1.17e+00  -1.1 2.92e-01 1.20e-01h  1
  94  1.9352344e+01 1.06e+00 7.34e+00  -3.8 9.18e-01  -0.7 2.17e-01 6.49e-01h  1
  95  1.9397246e+01 3.00e-01 1.59e+00  -3.8 7.31e-01  -1.2 1.00e+00 1.00e+00h  1
  96  1.9398421e+01 5.61e-02 2.70e-01  -3.8 1.25e-01  -0.7 1.00e+00 1.00e+00h  1
  97  1.9390507e+01 7.35e-02 7.03e-02  -3.8 6.95e-02  -1.2 1.00e+00 1.00e+00h  1
  98  1.9269463e+01 4.94e+00 5.63e-02  -3.8 2.88e+01    -  2.09e-01 1.47e-01h  1
  99  1.9276956e+01 3.38e+00 6.42e-02  -3.8 2.40e+00  -1.7 2.03e-01 1.00e+00h  1
iter    objective    inf_pr   inf_du lg(mu)  ||d||  lg(rg) alpha_du alpha_pr  ls
 100  1.9277572e+01 2.72e+00 4.13e-02  -3.8 1.68e+00  -2.2 9.30e-01 1.93e-01h  1
 101  1.9254321e+01 1.21e+00 7.48e-02  -3.8 1.71e+00  -2.6 1.00e+00 1.00e+00h  1
 102  1.9245969e+01 6.23e-01 7.92e-03  -3.8 6.22e-01  -2.2 1.00e+00 1.00e+00h  1
 103  1.9225215e+01 1.88e-01 1.72e-02  -3.8 9.50e-01  -2.7 1.00e+00 7.79e-01h  1
 104  1.9184881e+01 2.76e-01 1.73e-02  -3.8 2.35e+00  -3.2 1.00e+00 1.00e+00h  1
 105  1.9174081e+01 1.62e-01 1.23e-02  -3.8 8.58e-01  -2.7 1.00e+00 1.00e+00h  1
 106  1.9158913e+01 7.02e-01 3.04e-01  -3.8 2.06e+00  -3.2 1.00e+00 5.44e-01h  1
 107  1.9140166e+01 5.64e-01 1.56e-01  -3.8 4.09e+00  -3.7 5.03e-01 3.99e-01h  1
 108  1.9115516e+01 2.15e+00 2.05e-01  -3.8 3.15e+00    -  6.08e-01 6.61e-01h  1
 109  1.9111197e+01 1.44e+00 5.98e-02  -3.8 1.25e+00    -  6.92e-01 8.05e-01h  1
iter    objective    inf_pr   inf_du lg(mu)  ||d||  lg(rg) alpha_du alpha_pr  ls
 110  1.9125217e+01 1.78e+00 2.39e-01  -3.8 7.38e-01  -1.5 9.60e-01 1.00e+00h  1
 111  1.9124892e+01 2.01e+00 2.10e-01  -3.8 4.08e+00  -1.9 6.73e-02 1.25e-01h  4
 112  1.9124626e+01 1.07e+00 6.27e-02  -3.8 4.63e-01  -1.5 1.00e+00 1.00e+00h  1
 113  1.9121530e+01 2.11e+00 3.54e-02  -3.8 2.64e-01  -2.0 8.10e-01 1.00e+00h  1
 114  1.9122655e+01 1.43e+00 1.10e-01  -3.8 2.04e-01  -1.6 1.00e+00 1.00e+00h  1
 115  1.9122810e+01 1.05e+00 1.82e+00  -3.8 2.06e-01  -0.2 1.00e+00 1.00e+00h  1
 116  1.9124550e+01 2.35e-01 1.09e+00  -3.8 1.27e-01  -0.7 1.00e+00 1.00e+00h  1
 117  1.9124536e+01 6.21e-02 6.14e-02  -3.8 5.32e-02  -1.2 1.00e+00 1.00e+00h  1
 118  1.9123880e+01 1.92e-02 1.40e-02  -3.8 6.96e-02  -1.7 1.00e+00 1.00e+00h  1
 119  1.9122742e+01 1.20e-01 1.14e-02  -3.8 1.27e-01  -2.1 1.00e+00 1.00e+00h  1
iter    objective    inf_pr   inf_du lg(mu)  ||d||  lg(rg) alpha_du alpha_pr  ls
 120  1.9122064e+01 1.64e+00 1.92e-01  -3.8 1.27e-01  -2.6 1.00e+00 1.00e+00h  1
 121  1.9121147e+01 1.66e-01 5.32e-01  -3.8 1.20e-01  -0.4 1.00e+00 1.00e+00h  1
 122  1.9121945e+01 1.33e-01 2.97e-01  -3.8 4.52e-02   0.0 1.00e+00 5.00e-01h  2
 123  1.9123166e+01 1.71e-01 3.13e-01  -3.8 2.68e-02   0.5 1.00e+00 1.00e+00h  1
 124  1.9123671e+01 4.27e-03 7.10e-02  -3.8 3.04e-02  -0.0 1.00e+00 1.00e+00h  1
 125  1.9123149e+01 1.37e-02 1.22e-02  -3.8 1.84e-02  -0.5 1.00e+00 1.00e+00h  1
 126  1.9115309e+01 1.56e-01 6.43e-03  -3.8 4.65e-01    -  1.00e+00 1.00e+00h  1
 127  1.9118881e+01 8.11e-02 3.71e-02  -3.8 5.76e-02  -1.0 1.00e+00 5.00e-01h  2
 128  1.9122526e+01 4.26e-03 2.36e-03  -3.8 3.70e-02  -1.4 1.00e+00 1.00e+00h  1
 129  1.9122204e+01 5.07e-03 2.03e-03  -3.8 8.30e-02  -1.9 1.00e+00 1.00e+00h  1
iter    objective    inf_pr   inf_du lg(mu)  ||d||  lg(rg) alpha_du alpha_pr  ls
 130  1.9121532e+01 1.61e-01 4.55e-03  -3.8 1.53e-01  -2.4 1.00e+00 1.00e+00h  1
 131  1.9121258e+01 1.25e-01 1.32e-01  -3.8 1.17e+00    -  6.18e-01 6.25e-02h  5
 132  1.9122915e+01 4.95e-03 3.10e-02  -3.8 2.62e-01    -  1.00e+00 1.00e+00H  1
 133  1.9115437e+01 7.00e-01 2.42e-02  -3.8 6.93e-01  -2.9 1.00e+00 1.00e+00h  1
 134  1.9116871e+01 3.69e-01 3.20e-02  -3.8 5.77e-01  -3.4 1.00e+00 5.00e-01h  2
 135  1.9120210e+01 6.36e-02 7.86e-03  -3.8 2.64e-01  -2.9 1.00e+00 1.00e+00h  1
 136  1.9120214e+01 6.16e-02 7.62e-03  -3.8 8.40e-01  -3.4 1.00e+00 3.12e-02h  6
 137  1.9120569e+01 5.23e-02 9.07e-03  -3.8 1.36e-01  -3.0 1.00e+00 1.00e+00h  1
 138  1.9119971e+01 2.56e-02 2.20e-03  -3.8 6.91e-02  -2.6 1.00e+00 1.00e+00h  1
 139  1.9119876e+01 1.57e-01 2.09e-02  -3.8 4.27e+00  -3.0 8.95e-01 4.35e-02h  5
iter    objective    inf_pr   inf_du lg(mu)  ||d||  lg(rg) alpha_du alpha_pr  ls
 140  1.9120375e+01 4.85e-02 8.76e-04  -3.8 2.39e-02  -1.7 1.00e+00 1.00e+00h  1
 141  1.9120239e+01 4.37e-02 6.81e-03  -3.8 7.01e-02  -2.2 1.00e+00 1.00e+00h  1
 142  1.9119564e+01 4.26e-02 1.26e-03  -3.8 2.01e-01    -  1.00e+00 1.00e+00h  1
 143  1.9119533e+01 1.43e-01 2.86e-03  -3.8 9.71e-01    -  1.00e+00 1.25e-01h  4
 144  1.9119562e+01 1.40e-02 5.29e-04  -3.8 2.16e-02  -2.7 1.00e+00 1.00e+00h  1
 145  1.9119549e+01 3.41e-03 4.94e-05  -3.8 6.68e-02  -3.1 1.00e+00 1.00e+00h  1
 146  1.9119491e+01 1.03e-01 6.29e-04  -3.8 3.05e-01  -3.6 1.00e+00 1.00e+00h  1
 147  1.9119230e+01 3.58e-01 1.03e-02  -3.8 2.33e+02  -4.1 3.26e-02 3.40e-03h  4
 148  1.9118855e+01 4.13e-02 5.33e-04  -3.8 6.58e-01  -3.7 1.00e+00 1.00e+00h  1
 149  1.9118306e+01 2.12e-01 6.25e-03  -3.8 3.99e+00  -4.1 1.00e+00 2.50e-01h  3
iter    objective    inf_pr   inf_du lg(mu)  ||d||  lg(rg) alpha_du alpha_pr  ls
 150  1.9117865e+01 2.33e-01 5.80e-03  -3.8 1.80e+00  -3.7 1.00e+00 2.50e-01h  3
 151  1.9117008e+01 1.72e-01 4.18e-03  -3.8 4.92e-01  -3.3 1.00e+00 1.00e+00h  1
 152  1.9115833e+01 2.00e-01 5.98e-03  -3.8 4.14e-01  -2.9 1.00e+00 1.00e+00h  1
 153  1.9115074e+01 1.63e-01 5.44e-03  -3.8 6.34e-02  -1.5 1.00e+00 1.00e+00h  1
 154  1.9115656e+01 9.42e-02 2.43e-02  -3.8 9.91e-02  -1.1 1.00e+00 1.00e+00h  1
 155  1.9113136e+01 4.21e-02 9.25e-03  -3.8 6.12e-01    -  1.00e+00 6.27e-01h  1
 156  1.9112060e+01 2.31e-02 2.62e-03  -3.8 1.71e-01    -  1.00e+00 8.54e-01f  1
 157  1.9112557e+01 3.63e-03 2.23e-04  -3.8 9.56e-02    -  1.00e+00 1.00e+00f  1
 158  1.9112218e+01 1.18e-03 3.20e-06  -3.8 3.83e-02    -  1.00e+00 1.00e+00h  1
 159  1.9105768e+01 1.05e-01 7.27e-03  -5.7 3.88e-01    -  9.37e-01 6.80e-01h  1
iter    objective    inf_pr   inf_du lg(mu)  ||d||  lg(rg) alpha_du alpha_pr  ls
 160  1.9103594e+01 2.93e-02 4.24e-03  -5.7 2.89e-01    -  8.75e-01 7.24e-01h  1
 161  1.9103015e+01 4.67e-02 1.67e-03  -5.7 2.19e-01    -  9.76e-01 7.76e-01h  1
 162  1.9102920e+01 7.28e-02 1.46e-02  -5.7 4.37e-01    -  1.00e+00 2.53e-01h  1
 163  1.9102810e+01 4.86e-02 1.17e-03  -5.7 1.32e-01    -  1.00e+00 9.17e-01h  1
 164  1.9102727e+01 2.46e-01 7.38e-03  -5.7 8.26e-02    -  1.00e+00 1.00e+00h  1
 165  1.9102458e+01 2.90e-01 5.26e-03  -5.7 1.84e-01    -  1.00e+00 1.00e+00h  1
 166  1.9101889e+01 1.25e+00 3.94e-02  -5.7 1.29e+00    -  8.30e-01 3.27e-01h  1
 167  1.9091116e+01 4.81e-01 1.08e-02  -5.7 5.66e-01    -  2.91e-01 1.00e+00h  1
 168  1.9101228e+01 4.36e-02 5.67e-02  -5.7 1.05e-01  -1.6 1.68e-01 9.99e-01h  1
 169  1.9101425e+01 3.46e-02 4.49e-02  -5.7 3.62e-01    -  1.00e+00 2.20e-01h  3
iter    objective    inf_pr   inf_du lg(mu)  ||d||  lg(rg) alpha_du alpha_pr  ls
 170  1.9101689e+01 2.75e-02 3.45e-02  -5.7 2.37e-01    -  1.00e+00 2.50e-01h  3
 171  1.9101921e+01 2.14e-02 2.65e-02  -5.7 1.63e-01    -  1.00e+00 2.50e-01h  3
 172  1.9102902e+01 1.51e-02 7.87e-03  -5.7 9.29e-02    -  1.00e+00 1.00e+00H  1
 173  1.9103184e+01 1.17e-02 5.20e-03  -5.7 1.43e-01    -  1.00e+00 1.00e+00H  1
 174  1.9103113e+01 1.00e-02 1.04e-02  -5.7 1.31e+00    -  5.39e-01 2.29e-02h  5
 175  1.9103035e+01 1.00e-02 1.41e-02  -5.7 5.49e-01    -  1.00e+00 5.81e-02h  4
 176  1.9103093e+01 9.30e-03 9.00e-03  -5.7 1.88e-01    -  1.00e+00 1.00e+00H  1
 177  1.9102805e+01 2.15e-02 1.57e-03  -5.7 1.75e-01    -  1.00e+00 1.00e+00H  1
 178  1.9102923e+01 7.17e-03 5.34e-03  -5.7 6.27e-02    -  1.00e+00 1.00e+00H  1
 179  1.9103403e+01 3.59e-03 6.10e-03  -5.7 1.89e-01    -  7.40e-01 1.00e+00H  1
iter    objective    inf_pr   inf_du lg(mu)  ||d||  lg(rg) alpha_du alpha_pr  ls
 180  1.9103168e+01 1.39e-03 4.43e-04  -5.7 5.05e-02  -2.1 1.00e+00 1.00e+00h  1
 181  1.9103070e+01 2.07e-03 1.53e-02  -5.7 2.26e-01    -  1.00e+00 9.89e-02h  4
 182  1.9103006e+01 2.43e-03 6.60e-03  -5.7 2.12e-01    -  1.00e+00 8.46e-02h  4
 183  1.9102932e+01 4.24e-03 6.88e-03  -5.7 1.94e-01    -  1.00e+00 1.25e-01h  4
 184  1.9102981e+01 3.34e-03 6.19e-03  -5.7 1.74e-01    -  1.00e+00 1.00e+00H  1
 185  1.9103373e+01 1.66e-03 5.94e-03  -5.7 1.99e-01    -  1.00e+00 1.00e+00H  1
 186  1.9102917e+01 8.03e-03 3.01e-04  -5.7 1.03e-01  -2.5 1.00e+00 1.00e+00h  1
 187  1.9103340e+01 1.97e-03 8.76e-03  -5.7 1.94e-01    -  1.00e+00 1.00e+00H  1
 188  1.9103160e+01 1.77e-03 9.63e-03  -5.7 2.79e-01    -  1.00e+00 1.62e-01h  3
 189  1.9102896e+01 6.91e-03 6.14e-03  -5.7 2.36e-01    -  1.00e+00 3.22e-01h  2
iter    objective    inf_pr   inf_du lg(mu)  ||d||  lg(rg) alpha_du alpha_pr  ls
 190  1.9102643e+01 2.50e-02 6.46e-04  -5.7 1.60e-01    -  1.00e+00 1.00e+00h  1
 191  1.9102891e+01 2.14e-02 4.31e-03  -5.7 4.71e-02    -  1.00e+00 1.00e+00H  1
 192  1.9103344e+01 7.55e-04 5.89e-03  -5.7 1.66e-01    -  7.69e-01 1.00e+00H  1
 193  1.9102981e+01 3.36e-03 3.65e-03  -5.7 1.66e-01  -3.0 1.00e+00 1.00e+00H  1
 194  1.9102726e+01 1.33e-03 2.06e-03  -5.7 1.84e-01    -  1.00e+00 7.04e-01h  1
 195  1.9102802e+01 2.09e-03 5.53e-04  -5.7 5.22e-02    -  1.00e+00 1.00e+00H  1
 196  1.9103169e+01 1.50e-03 7.83e-03  -5.7 9.41e-02    -  8.99e-01 1.00e+00H  1
 197  1.9103102e+01 1.40e-03 7.22e-03  -5.7 2.38e-01    -  1.00e+00 7.74e-02h  3
 198  1.9103016e+01 1.27e-03 1.34e-02  -5.7 2.17e-01    -  1.00e+00 1.19e-01h  4
 199  1.9102947e+01 1.13e-03 1.58e-02  -5.7 1.91e-01    -  1.00e+00 1.25e-01h  4
iter    objective    inf_pr   inf_du lg(mu)  ||d||  lg(rg) alpha_du alpha_pr  ls
 200  1.9103192e+01 7.41e-04 4.88e-03  -5.7 1.67e-01    -  9.56e-01 1.00e+00H  1
 201  1.9103152e+01 3.87e-04 9.81e-03  -5.7 1.48e+00    -  4.37e-01 1.10e-02h  6
 202  1.9103091e+01 1.15e-03 2.11e-02  -5.7 1.30e+00    -  1.00e+00 2.02e-02h  4
 203  1.9103080e+01 1.18e-03 1.75e-02  -5.7 6.79e-01    -  1.00e+00 6.46e-03h  8
 204  1.9103070e+01 1.20e-03 1.74e-02  -5.7 5.05e-01    -  1.00e+00 7.81e-03h  8
 205  1.9103066e+01 1.20e-03 1.72e-02  -5.7 3.73e-01    -  1.00e+00 3.91e-03h  9
 206  1.9102322e+01 1.03e+00 3.25e-02  -5.7 3.35e-01    -  1.00e+00 1.00e+00h  1
 207  1.9096623e+01 4.96e-01 1.07e-02  -5.7 5.56e-01    -  5.16e-01 1.00e+00h  1
 208  1.9096126e+01 1.75e+00 5.62e-02  -5.7 3.39e+00  -3.5 5.45e-01 2.07e-01h  1
 209  1.9087637e+01 1.10e+00 3.68e-02  -5.7 6.91e-01    -  1.94e-03 3.48e-01h  1
iter    objective    inf_pr   inf_du lg(mu)  ||d||  lg(rg) alpha_du alpha_pr  ls
 210  1.9087158e+01 5.08e-01 1.21e-02  -5.7 5.05e-01    -  5.17e-01 1.00e+00h  1
 211  1.9100020e+01 4.17e-01 6.97e-03  -5.7 3.68e-01  -3.1 3.61e-01 1.00e+00h  1
 212  1.9102047e+01 7.80e-02 1.17e-03  -5.7 1.59e-01    -  1.00e+00 1.00e+00h  1
 213  1.9102052e+01 7.28e-02 1.97e-03  -5.7 3.08e-01    -  1.00e+00 6.25e-02h  5
 214  1.9102696e+01 3.37e-02 1.98e-03  -5.7 4.19e-02    -  1.00e+00 1.00e+00h  1
 215  1.9102775e+01 2.28e-02 4.75e-04  -5.7 2.71e-02    -  1.00e+00 1.00e+00h  1
 216  1.9102829e+01 1.07e-02 3.41e-03  -5.7 3.98e-02    -  1.00e+00 1.00e+00H  1
 217  1.9103077e+01 1.65e-03 4.77e-03  -5.7 1.27e-01    -  1.00e+00 1.00e+00H  1
 218  1.9103018e+01 1.37e-03 6.71e-03  -5.7 5.28e-01    -  1.00e+00 4.45e-02h  5
 219  1.9102972e+01 1.54e-03 1.06e-02  -5.7 2.81e-01    -  1.00e+00 6.25e-02h  5
iter    objective    inf_pr   inf_du lg(mu)  ||d||  lg(rg) alpha_du alpha_pr  ls
 220  1.9102912e+01 1.39e-03 1.05e-02  -5.7 1.70e-01    -  1.00e+00 1.25e-01h  4
 221  1.9102644e+01 1.16e-01 4.59e-03  -5.7 1.42e-01    -  1.00e+00 1.00e+00h  1
 222  1.9103018e+01 1.38e-03 4.52e-03  -5.7 1.32e-01    -  1.00e+00 1.00e+00H  1
 223  1.9102973e+01 2.00e-03 7.69e-03  -5.7 2.72e-01    -  1.00e+00 6.25e-02h  5
 224  1.9102855e+01 3.61e-03 7.75e-03  -5.7 1.77e-01    -  1.00e+00 2.50e-01h  3
 225  1.9102701e+01 4.14e-02 2.38e-03  -5.7 1.12e-01    -  1.00e+00 1.00e+00h  1
 226  1.9102847e+01 2.56e-03 2.51e-03  -5.7 6.65e-02    -  1.00e+00 1.00e+00H  1
 227  1.9102984e+01 1.53e-03 6.48e-03  -5.7 9.94e-02    -  1.00e+00 1.00e+00H  1
 228  1.9102934e+01 1.38e-03 8.43e-03  -5.7 2.07e-01    -  1.00e+00 1.04e-01h  4
 229  1.9103156e+01 5.10e-04 5.21e-03  -5.7 1.63e-01    -  1.00e+00 1.00e+00H  1
iter    objective    inf_pr   inf_du lg(mu)  ||d||  lg(rg) alpha_du alpha_pr  ls
 230  1.9103096e+01 6.45e-04 9.94e-03  -5.7 6.04e-01    -  1.00e+00 3.75e-02h  5
 231  1.9103063e+01 8.27e-04 1.17e-02  -5.7 3.69e-01    -  1.00e+00 3.12e-02h  6
 232  1.9103056e+01 8.30e-04 1.24e-02  -5.7 3.13e-01    -  1.00e+00 7.81e-03h  8
 233  1.9103049e+01 8.33e-04 1.26e-02  -5.7 3.02e-01    -  1.00e+00 7.81e-03h  8
 234  1.9103043e+01 8.35e-04 1.26e-02  -5.7 2.92e-01    -  1.00e+00 7.81e-03h  8
 235  1.9102450e+01 7.75e-01 2.48e-02  -5.7 2.81e-01    -  1.00e+00 1.00e+00h  1
 236  1.9099567e+01 4.87e-01 1.03e-02  -5.7 4.67e-01    -  5.95e-01 1.00e+00h  1
 237  1.9099394e+01 9.08e-01 2.87e-02  -5.7 1.16e+00  -3.5 1.00e+00 3.36e-01h  2
 238  1.9096156e+01 5.84e-01 1.24e-02  -5.7 4.82e-01    -  8.25e-01 1.00e+00h  1
 239  1.9102815e+01 2.34e-01 3.35e-02  -5.7 5.21e-01  -3.1 8.01e-01 1.00e+00H  1
iter    objective    inf_pr   inf_du lg(mu)  ||d||  lg(rg) alpha_du alpha_pr  ls
 240  1.9101715e+01 2.86e-01 1.50e-02  -5.7 5.34e-01    -  1.00e+00 1.00e+00h  1
 241  1.9101467e+01 2.92e-01 1.40e-02  -5.7 1.91e+00  -3.6 7.01e-01 4.57e-02h  4
 242  1.9101731e+01 1.63e-01 1.22e-02  -5.7 2.33e-01    -  1.00e+00 1.00e+00h  1
 243  1.9101930e+01 1.21e-01 9.36e-03  -5.7 1.94e-01    -  1.00e+00 2.50e-01h  3
 244  1.9102940e+01 4.39e-02 4.51e-03  -5.7 1.43e-01    -  1.00e+00 1.00e+00H  1
 245  1.9102687e+01 2.61e-02 4.82e-04  -5.7 1.83e-01    -  1.00e+00 1.00e+00h  1
 246  1.9103085e+01 4.63e-04 5.57e-03  -5.7 7.53e-02    -  9.84e-01 1.00e+00H  1
 247  1.9102882e+01 3.23e-02 6.42e-03  -5.7 2.25e-01    -  1.00e+00 2.95e-01h  1
 248  1.9102654e+01 5.97e-02 6.51e-04  -5.7 1.80e-01    -  1.00e+00 1.00e+00f  1
 249  1.9102641e+01 6.33e-02 1.55e-03  -5.7 1.54e-01    -  1.00e+00 1.25e-01h  4
iter    objective    inf_pr   inf_du lg(mu)  ||d||  lg(rg) alpha_du alpha_pr  ls
 250  1.9102760e+01 3.89e-04 5.71e-05  -5.7 9.84e-03    -  1.00e+00 1.00e+00h  1
 251  1.9102785e+01 1.79e-04 1.43e-05  -5.7 1.92e-03    -  1.00e+00 1.00e+00h  1
 252  1.9102785e+01 3.02e-05 2.44e-06  -5.7 9.30e-04    -  1.00e+00 1.00e+00h  1
 253  1.9102785e+01 1.04e-06 7.76e-08  -5.7 1.43e-04    -  1.00e+00 1.00e+00h  1
 254  1.9102701e+01 7.02e-05 5.91e-04  -7.0 2.04e-02    -  1.00e+00 8.77e-01h  1
 255  1.9102689e+01 6.89e-06 1.83e-07  -7.0 5.75e-03    -  1.00e+00 1.00e+00f  1
 256  1.9102689e+01 4.07e-08 8.70e-09  -7.0 9.26e-04    -  1.00e+00 1.00e+00h  1

Number of Iterations....: 256

                                   (scaled)                 (unscaled)
Objective...............:   1.9102688727172787e+01    1.9102688727172787e+01
Dual infeasibility......:   8.6977276142483138e-09    8.6977276142483138e-09
Constraint violation....:   4.0664006384361073e-08    4.0664006384361073e-08
Variable bound violation:   0.0000000000000000e+00    0.0000000000000000e+00
Complementarity.........:   9.7287651518192253e-08    9.7287651518192253e-08
Overall NLP error.......:   9.7287651518192253e-08    9.7287651518192253e-08


Number of objective function evaluations             = 670
Number of objective gradient evaluations             = 257
Number of equality constraint evaluations            = 670
Number of inequality constraint evaluations          = 670
Number of equality constraint Jacobian evaluations   = 257
Number of inequality constraint Jacobian evaluations = 257
Number of Lagrangian Hessian evaluations             = 256
Total seconds in IPOPT                               = 41.197

EXIT: Optimal Solution Found.
      solver  :   t_proc      (avg)   t_wall      (avg)    n_eval
       nlp_f  |  23.67ms ( 35.33us)  23.81ms ( 35.54us)       670
       nlp_g  |   2.76 s (  4.12ms)   2.78 s (  4.15ms)       670
  nlp_grad_f  |  13.47ms ( 52.21us)  13.58ms ( 52.65us)       258
  nlp_hess_l  |  27.37 s (106.91ms)  27.56 s (107.64ms)       256
   nlp_jac_g  |   7.07 s ( 27.40ms)   7.12 s ( 27.58ms)       258
       total  |  40.92 s ( 40.92 s)  41.20 s ( 41.20 s)         1
  Success: True
  Cost: 19.1027
  Iterations: 256
  Solve time: 55.52 s
  Max obstacle slack: 0.0000e+00
  Min obstacle clearance: inf m
  Accepted: True

Accepted attempt: baseline

Generating plots...
  Saved: /run/media/saveas/Secondary-Storage/Masters/CS234/CS234_Reinforcement_Learning/Final Project/CS234_Final_Project/results/trajectory_optimization/nlp/TRACK3_300m/base/ipopt_single_stage_trajectory.png
  Saved: /run/media/saveas/Secondary-Storage/Masters/CS234/CS234_Reinforcement_Learning/Final Project/CS234_Final_Project/results/trajectory_optimization/nlp/TRACK3_300m/base/ipopt_single_stage_states.png
  Saved: /run/media/saveas/Secondary-Storage/Masters/CS234/CS234_Reinforcement_Learning/Final Project/CS234_Final_Project/results/trajectory_optimization/nlp/TRACK3_300m/base/ipopt_single_stage_controls.png

Generating animation...
  Saved: /run/media/saveas/Secondary-Storage/Masters/CS234/CS234_Reinforcement_Learning/Final Project/CS234_Final_Project/results/trajectory_optimization/nlp/TRACK3_300m/base/ipopt_single_stage_animation.gif

======================================================================
SUMMARY
======================================================================
Selected attempt: baseline
Attempt                    N      Subs   Clear    Iters    Time [s]   Cost [s]   Max Sigma    Min Clear [m]  Accepted
-----------------------------------------------------------------------------------------------------------------------------
baseline                   120    7      0.000    256      55.52      19.1027    0.000e+00    inf            True

All outputs saved to: /run/media/saveas/Secondary-Storage/Masters/CS234/CS234_Reinforcement_Learning/Final Project/CS234_Final_Project/results/trajectory_optimization/nlp/TRACK3_300m/base
